5688
2779
2688
4574
9935
1717
3293
7412
5779
1725
3515
8066
2925
6101
2473
7811
9931
4421
1694
5898
8056
5495
7840
3681
8342
5504
7435
5923
2436
1563
6569
4624
9614
3824
3724
5662
6127
9496
698
5534
5045
6235
769
9663
4812
2160
8973
7334
468
3410
6294
